11 11
0 2 2 4 100 100 100 100 5 5 100 
2 0 4 2 100 100 100 100 100 5 5 
2 4 0 2 100 100 100 100 3 3 100 
4 2 2 0 100 100 100 100 100 3 3 
100 100 100 100 0 2 2 4 4 2 100 
100 100 100 100 2 0 4 2 100 2 2 
100 100 100 100 2 4 0 2 6 4 100 
100 100 100 100 4 2 2 0 100 4 4 
5 100 3 100 4 100 6 100 0 100 100 
5 5 3 3 2 2 4 4 100 0 100 
100 5 100 3 100 2 100 4 100 100 0 
